p cnf 600 444
c p distribution  0.875 0.125
c p distribution  0.875 0.125
c p distribution  0.875 0.125
c p distribution  0.875 0.125
c p distribution  0.875 0.125
c p distribution  0.875 0.125
c p distribution  0.875 0.125
c p distribution  0.875 0.125
c p distribution  0.875 0.125
c p distribution  0.875 0.125
c p distribution  0.875 0.125
c p distribution  0.875 0.125
c p distribution  0.875 0.125
c p distribution  0.875 0.125
c p distribution  0.875 0.125
c p distribution  0.875 0.125
c p distribution  0.875 0.125
c p distribution  0.875 0.125
c p distribution  0.875 0.125
c p distribution  0.875 0.125
c p distribution  0.875 0.125
c p distribution  0.875 0.125
c p distribution  0.875 0.125
c p distribution  0.875 0.125
c p distribution  0.875 0.125
c p distribution  0.875 0.125
c p distribution  0.875 0.125
c p distribution  0.875 0.125
c p distribution  0.875 0.125
c p distribution  0.875 0.125
c p distribution  0.875 0.125
c p distribution  0.875 0.125
c p distribution  0.875 0.125
c p distribution  0.875 0.125
c p distribution  0.875 0.125
c p distribution  0.875 0.125
c p distribution  0.875 0.125
c p distribution  0.875 0.125
c p distribution  0.875 0.125
c p distribution  0.875 0.125
c p distribution  0.875 0.125
c p distribution  0.875 0.125
c p distribution  0.875 0.125
c p distribution  0.875 0.125
c p distribution  0.875 0.125
c p distribution  0.875 0.125
c p distribution  0.875 0.125
c p distribution  0.875 0.125
c p distribution  0.875 0.125
c p distribution  0.875 0.125
c p distribution  0.875 0.125
c p distribution  0.875 0.125
c p distribution  0.875 0.125
c p distribution  0.875 0.125
c p distribution  0.875 0.125
c p distribution  0.875 0.125
c p distribution  0.875 0.125
c p distribution  0.875 0.125
c p distribution  0.875 0.125
c p distribution  0.875 0.125
c p distribution  0.875 0.125
c p distribution  0.875 0.125
c p distribution  0.875 0.125
c p distribution  0.875 0.125
c p distribution  0.875 0.125
c p distribution  0.875 0.125
c p distribution  0.875 0.125
c p distribution  0.875 0.125
c p distribution  0.875 0.125
c p distribution  0.875 0.125
c p distribution  0.875 0.125
c p distribution  0.875 0.125
c p distribution  0.875 0.125
c p distribution  0.875 0.125
c p distribution  0.875 0.125
c p distribution  0.875 0.125
c p distribution  0.875 0.125
c p distribution  0.875 0.125
c p distribution  0.875 0.125
c p distribution  0.875 0.125
c p distribution  0.875 0.125
c p distribution  0.875 0.125
c p distribution  0.875 0.125
c p distribution  0.875 0.125
c p distribution  0.875 0.125
c p distribution  0.875 0.125
c p distribution  0.875 0.125
c p distribution  0.875 0.125
c p distribution  0.875 0.125
c p distribution  0.875 0.125
c p distribution  0.875 0.125
c p distribution  0.875 0.125
c p distribution  0.875 0.125
c p distribution  0.875 0.125
c p distribution  0.875 0.125
c p distribution  0.875 0.125
c p distribution  0.875 0.125
c p distribution  0.875 0.125
c p distribution  0.875 0.125
c p distribution  0.875 0.125
c p distribution  0.875 0.125
c p distribution  0.875 0.125
c p distribution  0.875 0.125
c p distribution  0.875 0.125
c p distribution  0.875 0.125
c p distribution  0.875 0.125
c p distribution  0.875 0.125
c p distribution  0.875 0.125
c p distribution  0.875 0.125
c p distribution  0.875 0.125
c p distribution  0.875 0.125
c p distribution  0.875 0.125
c p distribution  0.875 0.125
c p distribution  0.875 0.125
c p distribution  0.875 0.125
c p distribution  0.875 0.125
c p distribution  0.875 0.125
c p distribution  0.875 0.125
c p distribution  0.875 0.125
c p distribution  0.875 0.125
c p distribution  0.875 0.125
c p distribution  0.875 0.125
c p distribution  0.875 0.125
c p distribution  0.875 0.125
c p distribution  0.875 0.125
c p distribution  0.875 0.125
c p distribution  0.875 0.125
c p distribution  0.875 0.125
c p distribution  0.875 0.125
c p distribution  0.875 0.125
c p distribution  0.875 0.125
c p distribution  0.875 0.125
c p distribution  0.875 0.125
c p distribution  0.875 0.125
c p distribution  0.875 0.125
c p distribution  0.875 0.125
c p distribution  0.875 0.125
c p distribution  0.875 0.125
c p distribution  0.875 0.125
c p distribution  0.875 0.125
c p distribution  0.875 0.125
c p distribution  0.875 0.125
c p distribution  0.875 0.125
c p distribution  0.875 0.125
c p distribution  0.875 0.125
c p distribution  0.875 0.125
c p distribution  0.875 0.125
c p distribution  0.875 0.125
c p distribution  0.875 0.125
c p distribution  0.875 0.125
c p distribution  0.875 0.125
c p distribution  0.875 0.125
c p distribution  0.875 0.125
c p distribution  0.875 0.125
c p distribution  0.875 0.125
c p distribution  0.875 0.125
c p distribution  0.875 0.125
c p distribution  0.875 0.125
c p distribution  0.875 0.125
c p distribution  0.875 0.125
c p distribution  0.875 0.125
c p distribution  0.875 0.125
c p distribution  0.875 0.125
c p distribution  0.875 0.125
c p distribution  0.875 0.125
c p distribution  0.875 0.125
c p distribution  0.875 0.125
c p distribution  0.875 0.125
c p distribution  0.875 0.125
c p distribution  0.875 0.125
c p distribution  0.875 0.125
c p distribution  0.875 0.125
c p distribution  0.875 0.125
c p distribution  0.875 0.125
c p distribution  0.875 0.125
c p distribution  0.875 0.125
c p distribution  0.875 0.125
c p distribution  0.875 0.125
c p distribution  0.875 0.125
c p distribution  0.875 0.125
c p distribution  0.875 0.125
c p distribution  0.875 0.125
c p distribution  0.875 0.125
c p distribution  0.875 0.125
c p distribution  0.875 0.125
c p distribution  0.875 0.125
c p distribution  0.875 0.125
c p distribution  0.875 0.125
c p distribution  0.875 0.125
c p distribution  0.875 0.125
c p distribution  0.875 0.125
c p distribution  0.875 0.125
c p distribution  0.875 0.125
c p distribution  0.875 0.125
c p distribution  0.875 0.125
c p distribution  0.875 0.125
c p distribution  0.875 0.125
c p distribution  0.875 0.125
c p distribution  0.875 0.125
c p distribution  0.875 0.125
c p distribution  0.875 0.125
c p distribution  0.875 0.125
c p distribution  0.875 0.125
c p distribution  0.875 0.125
c p distribution  0.875 0.125
c p distribution  0.875 0.125
c p distribution  0.875 0.125
c p distribution  0.875 0.125
c p distribution  0.875 0.125
c p distribution  0.875 0.125
c p distribution  0.875 0.125
c p distribution  0.875 0.125
c p distribution  0.875 0.125
c p distribution  0.875 0.125
c p distribution  0.875 0.125
c p distribution  0.875 0.125
c p distribution  0.875 0.125
c p distribution  0.875 0.125
c p distribution  0.875 0.125
c p distribution  0.875 0.125
c p distribution  0.875 0.125
513 0
-587 0
469 -579 -1 0
579 -469 -1 0
567 -486 -3 0
486 -567 -3 0
593 -448 -5 0
448 -593 -5 0
578 -581 -7 0
581 -578 -7 0
591 -486 -9 0
486 -591 -9 0
551 -485 -11 0
485 -551 -11 0
488 -537 -13 0
537 -488 -13 0
577 -594 -15 0
594 -577 -15 0
477 -510 -17 0
510 -477 -17 0
496 -564 -19 0
564 -496 -19 0
549 -584 -21 0
584 -549 -21 0
548 -546 -23 0
546 -548 -23 0
467 -450 -25 0
450 -467 -25 0
488 -443 -27 0
443 -488 -27 0
526 -461 -29 0
461 -526 -29 0
464 -586 -31 0
586 -464 -31 0
551 -509 -33 0
509 -551 -33 0
585 -573 -35 0
573 -585 -35 0
526 -473 -37 0
473 -526 -37 0
477 -479 -39 0
479 -477 -39 0
588 -553 -41 0
553 -588 -41 0
560 -559 -43 0
559 -560 -43 0
454 -452 -45 0
452 -454 -45 0
464 -495 -47 0
495 -464 -47 0
487 -506 -49 0
506 -487 -49 0
587 -448 -51 0
448 -587 -51 0
542 -543 -53 0
543 -542 -53 0
595 -468 -55 0
468 -595 -55 0
569 -497 -57 0
497 -569 -57 0
538 -550 -59 0
550 -538 -59 0
546 -491 -61 0
491 -546 -61 0
551 -459 -63 0
459 -551 -63 0
558 -548 -65 0
548 -558 -65 0
516 -515 -67 0
515 -516 -67 0
511 -463 -69 0
463 -511 -69 0
589 -553 -71 0
553 -589 -71 0
570 -546 -73 0
546 -570 -73 0
538 -507 -75 0
507 -538 -75 0
474 -560 -77 0
560 -474 -77 0
459 -575 -79 0
575 -459 -79 0
539 -522 -81 0
522 -539 -81 0
452 -490 -83 0
490 -452 -83 0
521 -580 -85 0
580 -521 -85 0
542 -543 -87 0
543 -542 -87 0
467 -561 -89 0
561 -467 -89 0
459 -491 -91 0
491 -459 -91 0
459 -572 -93 0
572 -459 -93 0
513 -573 -95 0
573 -513 -95 0
469 -532 -97 0
532 -469 -97 0
509 -504 -99 0
504 -509 -99 0
448 -450 -101 0
450 -448 -101 0
447 -579 -103 0
579 -447 -103 0
455 -449 -105 0
449 -455 -105 0
526 -560 -107 0
560 -526 -107 0
561 -578 -109 0
578 -561 -109 0
472 -498 -111 0
498 -472 -111 0
568 -581 -113 0
581 -568 -113 0
579 -499 -115 0
499 -579 -115 0
526 -473 -117 0
473 -526 -117 0
510 -575 -119 0
575 -510 -119 0
505 -564 -121 0
564 -505 -121 0
459 -598 -123 0
598 -459 -123 0
478 -559 -125 0
559 -478 -125 0
460 -569 -127 0
569 -460 -127 0
458 -529 -129 0
529 -458 -129 0
527 -488 -131 0
488 -527 -131 0
467 -482 -133 0
482 -467 -133 0
446 -529 -135 0
529 -446 -135 0
509 -558 -137 0
558 -509 -137 0
447 -594 -139 0
594 -447 -139 0
457 -462 -141 0
462 -457 -141 0
540 -569 -143 0
569 -540 -143 0
596 -589 -145 0
589 -596 -145 0
466 -514 -147 0
514 -466 -147 0
449 -521 -149 0
521 -449 -149 0
443 -598 -151 0
598 -443 -151 0
587 -533 -153 0
533 -587 -153 0
466 -502 -155 0
502 -466 -155 0
568 -534 -157 0
534 -568 -157 0
489 -515 -159 0
515 -489 -159 0
478 -600 -161 0
600 -478 -161 0
592 -590 -163 0
590 -592 -163 0
555 -447 -165 0
447 -555 -165 0
542 -543 -167 0
543 -542 -167 0
587 -467 -169 0
467 -587 -169 0
587 -591 -171 0
591 -587 -171 0
526 -509 -173 0
509 -526 -173 0
587 -570 -175 0
570 -587 -175 0
587 -585 -177 0
585 -587 -177 0
497 -520 -179 0
520 -497 -179 0
599 -595 -181 0
595 -599 -181 0
465 -572 -183 0
572 -465 -183 0
529 -564 -185 0
564 -529 -185 0
539 -600 -187 0
600 -539 -187 0
512 -563 -189 0
563 -512 -189 0
470 -514 -191 0
514 -470 -191 0
527 -488 -193 0
488 -527 -193 0
559 -488 -195 0
488 -559 -195 0
496 -489 -197 0
489 -496 -197 0
593 -502 -199 0
502 -593 -199 0
505 -488 -201 0
488 -505 -201 0
472 -566 -203 0
566 -472 -203 0
469 -499 -205 0
499 -469 -205 0
533 -548 -207 0
548 -533 -207 0
526 -512 -209 0
512 -526 -209 0
556 -471 -211 0
471 -556 -211 0
454 -452 -213 0
452 -454 -213 0
526 -473 -215 0
473 -526 -215 0
488 -510 -217 0
510 -488 -217 0
538 -571 -219 0
571 -538 -219 0
479 -598 -221 0
598 -479 -221 0
556 -555 -223 0
555 -556 -223 0
585 -502 -225 0
502 -585 -225 0
497 -468 -227 0
468 -497 -227 0
455 -521 -229 0
521 -455 -229 0
554 -449 -231 0
449 -554 -231 0
554 -501 -233 0
501 -554 -233 0
589 -498 -235 0
498 -589 -235 0
491 -572 -237 0
572 -491 -237 0
547 -541 -239 0
541 -547 -239 0
513 -591 -241 0
591 -513 -241 0
557 -498 -243 0
498 -557 -243 0
582 -586 -245 0
586 -582 -245 0
593 -582 -247 0
582 -593 -247 0
490 -500 -249 0
500 -490 -249 0
562 -565 -251 0
565 -562 -251 0
490 -549 -253 0
549 -490 -253 0
464 -586 -255 0
586 -464 -255 0
495 -542 -257 0
542 -495 -257 0
591 -451 -259 0
451 -591 -259 0
478 -600 -261 0
600 -478 -261 0
503 -553 -263 0
553 -503 -263 0
524 -492 -265 0
492 -524 -265 0
463 -523 -267 0
523 -463 -267 0
447 -579 -269 0
579 -447 -269 0
526 -473 -271 0
473 -526 -271 0
587 -561 -273 0
561 -587 -273 0
444 -541 -275 0
541 -444 -275 0
504 -449 -277 0
449 -504 -277 0
558 -548 -279 0
548 -558 -279 0
548 -480 -281 0
480 -548 -281 0
563 -522 -283 0
522 -563 -283 0
497 -520 -285 0
520 -497 -285 0
526 -461 -287 0
461 -526 -287 0
547 -565 -289 0
565 -547 -289 0
471 -570 -291 0
570 -471 -291 0
562 -517 -293 0
517 -562 -293 0
530 -483 -295 0
483 -530 -295 0
571 -518 -297 0
518 -571 -297 0
591 -548 -299 0
548 -591 -299 0
470 -562 -301 0
562 -470 -301 0
537 -528 -303 0
528 -537 -303 0
520 -468 -305 0
468 -520 -305 0
551 -558 -307 0
558 -551 -307 0
456 -532 -309 0
532 -456 -309 0
444 -547 -311 0
547 -444 -311 0
465 -546 -313 0
546 -465 -313 0
534 -569 -315 0
569 -534 -315 0
445 -550 -317 0
550 -445 -317 0
485 -509 -319 0
509 -485 -319 0
447 -497 -321 0
497 -447 -321 0
488 -551 -323 0
551 -488 -323 0
523 -514 -325 0
514 -523 -325 0
593 -582 -327 0
582 -593 -327 0
556 -518 -329 0
518 -556 -329 0
567 -515 -331 0
515 -567 -331 0
528 -567 -333 0
567 -528 -333 0
589 -566 -335 0
566 -589 -335 0
524 -542 -337 0
542 -524 -337 0
582 -518 -339 0
518 -582 -339 0
467 -450 -341 0
450 -467 -341 0
454 -578 -343 0
578 -454 -343 0
574 -480 -345 0
480 -574 -345 0
534 -453 -347 0
453 -534 -347 0
565 -596 -349 0
596 -565 -349 0
497 -475 -351 0
475 -497 -351 0
513 -573 -353 0
573 -513 -353 0
497 -487 -355 0
487 -497 -355 0
559 -488 -357 0
488 -559 -357 0
519 -501 -359 0
501 -519 -359 0
524 -525 -361 0
525 -524 -361 0
576 -449 -363 0
449 -576 -363 0
544 -501 -365 0
501 -544 -365 0
531 -581 -367 0
581 -531 -367 0
582 -586 -369 0
586 -582 -369 0
597 -486 -371 0
486 -597 -371 0
542 -518 -373 0
518 -542 -373 0
497 -590 -375 0
590 -497 -375 0
503 -547 -377 0
547 -503 -377 0
498 -566 -379 0
566 -498 -379 0
548 -582 -381 0
582 -548 -381 0
445 -571 -383 0
571 -445 -383 0
557 -463 -385 0
463 -557 -385 0
487 -590 -387 0
590 -487 -387 0
466 -467 -389 0
467 -466 -389 0
547 -541 -391 0
541 -547 -391 0
521 -462 -393 0
462 -521 -393 0
454 -452 -395 0
452 -454 -395 0
470 -513 -397 0
513 -470 -397 0
464 -461 -399 0
461 -464 -399 0
527 -488 -401 0
488 -527 -401 0
452 -540 -403 0
540 -452 -403 0
592 -456 -405 0
456 -592 -405 0
464 -461 -407 0
461 -464 -407 0
484 -507 -409 0
507 -484 -409 0
497 -520 -411 0
520 -497 -411 0
484 -525 -413 0
525 -484 -413 0
477 -443 -415 0
443 -477 -415 0
479 -575 -417 0
575 -479 -417 0
493 -535 -419 0
535 -493 -419 0
542 -462 -421 0
462 -542 -421 0
549 -555 -423 0
555 -549 -423 0
500 -584 -425 0
584 -500 -425 0
526 -544 -427 0
544 -526 -427 0
550 -579 -429 0
579 -550 -429 0
567 -480 -431 0
480 -567 -431 0
526 -554 -433 0
554 -526 -433 0
508 -595 -435 0
595 -508 -435 0
516 -515 -437 0
515 -516 -437 0
456 -583 -439 0
583 -456 -439 0
545 -507 -441 0
507 -545 -441 0

